NAME          COPTPROB
OBJSENSE
  MIN
ROWS
 N  __OBJ___
 L  C32     
 L  C65     
 L  C120    
COLUMNS
    MARKER    'MARKER'                 'INTORG'
    x1461     __OBJ___  51
    x1461     C32       -1
    x2599     __OBJ___  44
    x2599     C65       -1
    x3885     __OBJ___  65
    x3885     C32       -1
    x3885     C65       -1
    x4127     __OBJ___  74
    x4127     C32       -1
    x4127     C120      -1
    x4600     __OBJ___  64
    x4600     C65       -1
    x4600     C120      -1
    x5907     __OBJ___  34
    x5907     C120      -1
    MARKER    'MARKER'                 'INTEND'
RHS
    RHS       __OBJ___  -2178
    RHS       C32       -1
    RHS       C65       -1
    RHS       C120      -1
BOUNDS
 UP BOUND     x1461     1
 UP BOUND     x2599     1
 UP BOUND     x3885     1
 UP BOUND     x4127     1
 UP BOUND     x4600     1
 UP BOUND     x5907     1
ENDATA
